10 10 10
50
6 9 5
7 1 1
4 1 5
6 10 4
8 2 6
6 4 5
7 3 10
6 2 2
5 10 3
7 5 6
7 7 8
7 9 7
10 9 1
8 4 10
6 4 1
7 5 9
1 10 5
3 5 3
8 2 4
5 2 3
2 4 6
5 8 7
10 10 7
10 2 6
9 10 5
6 1 5
5 4 10
5 4 2
3 8 8
8 2 7
3 10 2
3 8 7
4 1 3
6 3 6
5 5 10
6 3 8
5 7 10
1 2 9
7 9 9
7 1 4
9 9 7
9 8 4
7 8 4
5 1 6
1 8 9
10 5 3
2 6 4
2 8 2
1 6 6
2 2 1
